WARNING: for repeatability, setting FPU to use double precision
============================[ Problem Statistics ]=============================
|                                                                             |
|  Number of variables:        237692                                         |
|  Number of clauses:          545504                                         |
|  Parse time:                   0.32 s                                       |
|                                                                             |
============================[ Search Statistics ]==============================
| Conflicts |          ORIGINAL         |          LEARNT          | Progress |
|           |    Vars  Clauses Literals |    Limit  Clauses Lit/Cl |          |
===============================================================================
|       100 |  130506   521791  1173688 |   191323      100     16 | 45.094 % |
|       250 |  130506   521791  1173688 |   210455      250     22 | 45.094 % |
|       475 |  130506   521791  1173688 |   231501      475     43 | 45.094 % |
|       812 |  130506   521791  1173688 |   254651      812     52 | 45.094 % |
|      1318 |  130506   521791  1173688 |   280116     1318     59 | 45.094 % |
|      2077 |  130506   521791  1173688 |   308128     2077     50 | 45.094 % |
|      3216 |  130506   521791  1173688 |   338941     3216     87 | 45.094 % |
===============================================================================
restarts              : 17
conflicts             : 3362           (1187 /sec)
decisions             : 45679          (0.00 % random) (16129 /sec)
propagations          : 7682168        (2712460 /sec)
conflict literals     : 284465         (8.05 % deleted)
Memory used           : 62.00 MB
CPU time              : 2.83218 s

SATISFIABLE
